c defined variables: 33 34 35 36 37 38 39 40 41 42 43 44 45 46 47 48 49 50 51 52 53 54 55 56 57 58 59 60 61 62 63 64 65 66 67 68 69 70 71 72 73 74 75 76 77 78 79 80 81 82 83 84 85 86 87 88 89 90 91 92 93 94 95 96 97 98 99 100 101 102 103 104 105 106 107 108 109 110 111 112 113 114 115 116 117 118 119 120 121 122 123 124 125 126 127 128 129 130 131 132 133 134 135 136 137 138 139 140 141 142 143 144 145 146 147 148 149 150 151 152 153 154 155 156 157 158 159 160 161 162 163 164 165 166 167 180 181 182 183 184 185 186 187 188 189 190 191 192 193 194 195 196 197 198 199 200 201 202 203 204 205 206 207 208 209 210 211 212 213 214 215 216 217 218 219 220 221 222 223 224 225 226 227 228 229 230 231 232 233 234 235 236 237 238 239 240 242 243 244 245 246 247 248 249 250 251 252 253 254 255 256 257 258 259 260 261 262 263 264 265 266 267 268 269 270 271 272 273 274 275 276 277 278 279 280 281 282 283 284 285 286 287 288 289 290 291 292 293 294 295 296 297 298 299 300 301 302 303 304 305 306 307 308 309 310 311 312 313 314 315 316 
p cnf 1425 2174
a 1 2 3 4 5 6 7 8 9 10 11 12 13 14 15 16 17 18 19 20 21 22 23 24 25 26 27 28 29 30 31 32 171 172 173 174 175 176 177 178 179 0
e 33 34 35 36 37 38 39 40 41 42 43 44 45 46 47 48 49 50 51 52 53 54 55 56 57 58 59 60 61 62 63 64 65 66 67 68 69 70 71 72 73 74 75 76 77 78 79 80 81 82 83 84 85 86 87 88 89 90 91 92 93 94 95 96 97 98 99 100 101 102 103 104 105 106 107 108 109 110 111 112 113 114 115 116 117 118 119 120 121 122 123 124 125 126 127 128 129 130 131 132 133 134 135 136 137 138 139 140 141 142 143 144 145 146 147 148 149 150 151 152 153 154 155 156 157 158 159 160 161 162 163 164 165 166 167 180 181 182 183 184 185 186 187 188 189 190 191 192 193 194 195 196 197 198 199 200 201 202 203 204 205 206 207 208 209 210 211 212 213 214 215 216 217 218 219 220 221 222 223 224 225 226 227 228 229 230 231 232 233 234 235 236 237 238 239 240 242 243 244 245 246 247 248 249 250 251 252 253 254 255 256 257 258 259 260 261 262 263 264 265 266 267 268 269 270 271 272 273 274 275 276 277 278 279 280 281 282 283 284 285 286 287 288 289 290 291 292 293 294 295 296 297 298 299 300 301 302 303 304 305 306 307 308 309 310 311 312 313 314 315 316 1164 1165 1166 1167 1168 1169 1170 1171 1172 1173 1174 1175 1176 1177 1178 1179 1180 1181 1182 1183 1184 1185 1186 1187 1188 1189 1190 1191 1192 1193 1194 1195 1196 1197 1198 1199 1200 1201 1202 1203 1204 1205 1206 1207 1208 1209 1210 1211 1212 1213 1214 1215 1216 1217 1218 1219 1220 1221 1222 1223 1224 1225 1226 1227 1228 1229 1230 1231 1232 1233 1234 1235 1236 1237 1238 1239 1240 1241 1242 1243 1244 1245 1246 1247 1248 1249 1250 1251 1252 1253 1254 1255 1256 1257 1258 1259 1260 1261 1262 1263 1264 1265 1266 1267 1268 1269 1270 1271 1272 1273 1274 1275 1276 1277 1278 1279 1280 1281 1282 1283 1284 1285 1286 1287 1288 1289 1290 1291 1292 1293 1294 1295 1296 1297 1298 1299 1300 1301 1302 1303 1304 1305 1306 1307 1308 1309 1310 1311 1312 1313 1314 1315 1316 1317 1318 1319 1320 1321 1322 1323 1324 1325 1326 1327 1328 1329 1330 1331 1332 1333 1334 1335 1336 1337 1338 1339 1340 1341 1342 1343 1344 1345 1346 1347 1348 1349 1350 1351 1352 1353 1354 1355 1356 1357 1358 1359 1360 1361 1362 1363 1364 1365 1366 1367 1368 1369 1370 1371 1372 1373 1374 1375 1376 1377 1378 1379 1380 1381 1382 1383 1384 1385 1386 1387 1388 1389 1390 1391 1392 1393 1394 1395 1396 1397 1398 1399 1400 1401 1402 1403 1404 1405 1406 1407 1408 1409 1410 1411 1412 1413 1414 1415 1416 1417 1418 1419 1420 1421 1422 1423 1424 1425 0
d 170 171 172 0
d 169 173 174 0
d 168 173 174 171 172 175 176 177 178 179 0
d 241 1 2 3 4 5 6 7 8 9 10 11 12 13 14 15 16 17 18 19 20 21 22 23 24 25 26 27 28 29 30 31 32 171 172 173 174 175 176 177 178 179 0
1164 -33 0
-1164 33 0
1165 -34 0
-1165 34 0
-1166 -35 0
1166 35 0
1167 -36 0
-1167 36 0
1168 -37 0
-1168 37 0
-1169 -38 0
1169 38 0
1170 -39 0
-1170 39 0
1171 -40 0
-1171 40 0
-1172 -41 0
1172 41 0
-12 -42 0
12 42 0
-1173 -43 0
1173 43 0
-11 -44 0
11 44 0
-1174 -45 0
1174 45 0
-10 -46 0
10 46 0
-1175 -47 0
1175 47 0
-9 -48 0
9 48 0
-1176 -49 0
1176 49 0
-49 -50 0
49 50 0
1177 -51 0
-1177 51 0
1179 -52 0
-1179 52 0
1181 -53 0
-1181 53 0
-1184 -54 0
1184 54 0
1185 -55 0
-1185 55 0
1186 -56 0
-1186 56 0
-1187 -57 0
1187 57 0
1188 -58 0
-1188 58 0
1189 -59 0
-1189 59 0
1190 -60 0
-1190 60 0
1191 -61 0
-1191 61 0
-1192 -62 0
1192 62 0
1193 -63 0
-1193 63 0
1194 -64 0
-1194 64 0
-1195 -65 0
1195 65 0
1196 -66 0
-1196 66 0
1197 -67 0
-1197 67 0
-1198 -68 0
1198 68 0
1199 -69 0
-1199 69 0
1200 -70 0
-1200 70 0
-1201 -71 0
1201 71 0
-8 -72 0
8 72 0
-1202 -73 0
1202 73 0
-7 -74 0
7 74 0
-1203 -75 0
1203 75 0
-6 -76 0
6 76 0
-1204 -77 0
1204 77 0
-5 -78 0
5 78 0
-1205 -79 0
1205 79 0
-79 -80 0
79 80 0
1206 -81 0
-1206 81 0
1208 -82 0
-1208 82 0
1210 -83 0
-1210 83 0
-1213 -84 0
1213 84 0
1214 -85 0
-1214 85 0
1215 -86 0
-1215 86 0
-1216 -87 0
1216 87 0
1217 -88 0
-1217 88 0
1218 -89 0
-1218 89 0
1219 -90 0
-1219 90 0
1220 -91 0
-1220 91 0
-1221 -92 0
1221 92 0
1222 -93 0
-1222 93 0
1223 -94 0
-1223 94 0
-1224 -95 0
1224 95 0
1225 -96 0
-1225 96 0
1226 -97 0
-1226 97 0
-1227 -98 0
1227 98 0
1228 -99 0
-1228 99 0
1229 -100 0
-1229 100 0
-1230 -101 0
1230 101 0
-4 -102 0
4 102 0
-1231 -103 0
1231 103 0
-3 -104 0
3 104 0
-1232 -105 0
1232 105 0
-2 -106 0
2 106 0
-1233 -107 0
1233 107 0
-1 -108 0
1 108 0
-1234 -109 0
1234 109 0
-109 -110 0
109 110 0
1235 -111 0
-1235 111 0
1237 -112 0
-1237 112 0
1239 -113 0
-1239 113 0
-1242 -114 0
1242 114 0
1243 -115 0
-1243 115 0
1244 -116 0
-1244 116 0
-1245 -117 0
1245 117 0
1246 -118 0
-1246 118 0
1247 -119 0
-1247 119 0
1248 -120 0
-1248 120 0
1249 -121 0
-1249 121 0
-1250 -122 0
1250 122 0
1251 -123 0
-1251 123 0
1252 -124 0
-1252 124 0
-1253 -125 0
1253 125 0
1254 -126 0
-1254 126 0
1255 -127 0
-1255 127 0
-1256 -128 0
1256 128 0
1257 -129 0
-1257 129 0
1258 -130 0
-1258 130 0
-1259 -131 0
1259 131 0
-16 -132 0
16 132 0
-1260 -133 0
1260 133 0
-15 -134 0
15 134 0
-1261 -135 0
1261 135 0
-14 -136 0
14 136 0
-1262 -137 0
1262 137 0
-13 -138 0
13 138 0
-1263 -139 0
1263 139 0
-139 -140 0
139 140 0
1264 -141 0
-1264 141 0
1266 -142 0
-1266 142 0
1268 -143 0
-1268 143 0
-1271 -144 0
1271 144 0
1272 -145 0
-1272 145 0
1273 -146 0
-1273 146 0
-1274 -147 0
1274 147 0
1275 -148 0
-1275 148 0
1276 -149 0
-1276 149 0
-144 -150 0
144 150 0
-1277 -151 0
1277 151 0
-54 -152 0
54 152 0
-1278 -153 0
1278 153 0
-84 -154 0
84 154 0
-1279 -155 0
1279 155 0
-114 -156 0
114 156 0
-1280 -157 0
1280 157 0
-157 -158 0
157 158 0
1281 -159 0
-1281 159 0
1283 -160 0
-1283 160 0
1285 -161 0
-1285 161 0
-1288 -162 0
1288 162 0
1289 -163 0
-1289 163 0
1290 -164 0
-1290 164 0
-1291 -165 0
1291 165 0
1292 -166 0
-1292 166 0
1293 -167 0
-1293 167 0
1251 -180 0
-1251 180 0
1252 -181 0
-1252 181 0
-1294 -182 0
1294 182 0
1254 -183 0
-1254 183 0
1255 -184 0
-1255 184 0
-1295 -185 0
1295 185 0
1257 -186 0
-1257 186 0
1258 -187 0
-1258 187 0
-1296 -188 0
1296 188 0
-16 -189 0
16 189 0
1297 -190 0
-1297 190 0
-15 -191 0
15 191 0
-1298 -192 0
1298 192 0
-14 -193 0
14 193 0
-1299 -194 0
1299 194 0
-13 -195 0
13 195 0
-1300 -196 0
1300 196 0
-196 -197 0
196 197 0
1301 -198 0
-1301 198 0
1303 -199 0
-1303 199 0
1305 -200 0
-1305 200 0
-1308 -201 0
1308 201 0
1272 -202 0
-1272 202 0
1273 -203 0
-1273 203 0
-1309 -204 0
1309 204 0
1310 -205 0
-1310 205 0
1311 -206 0
-1311 206 0
1312 -207 0
-1312 207 0
1313 -208 0
-1313 208 0
-1314 -209 0
1314 209 0
1222 -210 0
-1222 210 0
1223 -211 0
-1223 211 0
-1315 -212 0
1315 212 0
1225 -213 0
-1225 213 0
1226 -214 0
-1226 214 0
-1316 -215 0
1316 215 0
1228 -216 0
-1228 216 0
1229 -217 0
-1229 217 0
-1317 -218 0
1317 218 0
-4 -219 0
4 219 0
-1318 -220 0
1318 220 0
-3 -221 0
3 221 0
-1319 -222 0
1319 222 0
-2 -223 0
2 223 0
-1320 -224 0
1320 224 0
-1 -225 0
1 225 0
-1321 -226 0
1321 226 0
-226 -227 0
226 227 0
1322 -228 0
-1322 228 0
1324 -229 0
-1324 229 0
1326 -230 0
-1326 230 0
-1329 -231 0
1329 231 0
1243 -232 0
-1243 232 0
1244 -233 0
-1244 233 0
-1330 -234 0
1330 234 0
1331 -235 0
-1331 235 0
1332 -236 0
-1332 236 0
1333 -237 0
-1333 237 0
1334 -238 0
-1334 238 0
-1335 -239 0
1335 239 0
1314 -240 0
-1314 240 0
1193 -242 0
-1193 242 0
1194 -243 0
-1194 243 0
-1336 -244 0
1336 244 0
1196 -245 0
-1196 245 0
1197 -246 0
-1197 246 0
-1337 -247 0
1337 247 0
1199 -248 0
-1199 248 0
1200 -249 0
-1200 249 0
-1338 -250 0
1338 250 0
-8 -251 0
8 251 0
-1339 -252 0
1339 252 0
-7 -253 0
7 253 0
-1340 -254 0
1340 254 0
-6 -255 0
6 255 0
-1341 -256 0
1341 256 0
-5 -257 0
5 257 0
-1342 -258 0
1342 258 0
-258 -259 0
258 259 0
1343 -260 0
-1343 260 0
1345 -261 0
-1345 261 0
1347 -262 0
-1347 262 0
-1350 -263 0
1350 263 0
1214 -264 0
-1214 264 0
1215 -265 0
-1215 265 0
-1351 -266 0
1351 266 0
1352 -267 0
-1352 267 0
1353 -268 0
-1353 268 0
1164 -269 0
-1164 269 0
1165 -270 0
-1165 270 0
-1354 -271 0
1354 271 0
1167 -272 0
-1167 272 0
1168 -273 0
-1168 273 0
-1355 -274 0
1355 274 0
1170 -275 0
-1170 275 0
1171 -276 0
-1171 276 0
-1356 -277 0
1356 277 0
-12 -278 0
12 278 0
-1357 -279 0
1357 279 0
-11 -280 0
11 280 0
-1358 -281 0
1358 281 0
-10 -282 0
10 282 0
-1359 -283 0
1359 283 0
-9 -284 0
9 284 0
-1360 -285 0
1360 285 0
-285 -286 0
285 286 0
1361 -287 0
-1361 287 0
1363 -288 0
-1363 288 0
1365 -289 0
-1365 289 0
-1368 -290 0
1368 290 0
1185 -291 0
-1185 291 0
1186 -292 0
-1186 292 0
-1369 -293 0
1369 293 0
1370 -294 0
-1370 294 0
1371 -295 0
-1371 295 0
-201 -296 0
201 296 0
-1372 -297 0
1372 297 0
-290 -298 0
290 298 0
-1373 -299 0
1373 299 0
-263 -300 0
263 300 0
-1374 -301 0
1374 301 0
-231 -302 0
231 302 0
-1375 -303 0
1375 303 0
1378 -304 0
-1378 304 0
1381 -305 0
-1381 305 0
1385 -306 0
-1385 306 0
1387 -307 0
-1387 307 0
1390 -308 0
-1390 308 0
1393 -309 0
-1393 309 0
1396 -310 0
-1396 310 0
1399 -311 0
-1399 311 0
1413 -312 0
-1413 312 0
1416 -313 0
-1416 313 0
1419 -314 0
-1419 314 0
1422 -315 0
-1422 315 0
1425 -316 0
-1425 316 0
-33 -11 0
-33 27 0
11 -27 33 0
-34 11 0
-34 -27 0
-11 27 34 0
-33 35 0
-34 35 0
-35 33 34 0
-36 -10 0
-36 26 0
10 -26 36 0
-37 10 0
-37 -26 0
-10 26 37 0
-36 38 0
-37 38 0
-38 36 37 0
-39 -9 0
-39 25 0
9 -25 39 0
-40 9 0
-40 -25 0
-9 25 40 0
-39 41 0
-40 41 0
-41 39 40 0
-12 -42 0
12 42 0
-42 43 0
-28 43 0
-43 42 28 0
-11 -44 0
11 44 0
-44 45 0
-27 45 0
-45 44 27 0
-10 -46 0
10 46 0
-46 47 0
-26 47 0
-47 46 26 0
-9 -48 0
9 48 0
-48 49 0
-25 49 0
-49 48 25 0
-49 -50 0
49 50 0
-51 -41 0
-51 -47 0
41 47 51 0
-52 -38 0
-52 -41 0
-52 -45 0
38 41 45 52 0
-53 -35 0
-53 -38 0
-53 -41 0
-53 -43 0
35 38 41 43 53 0
-50 54 0
-51 54 0
-52 54 0
-53 54 0
-54 50 51 52 53 0
-55 -12 0
-55 28 0
12 -28 55 0
-56 12 0
-56 -28 0
-12 28 56 0
-55 57 0
-56 57 0
-57 55 56 0
-58 -57 0
-58 -35 0
-58 -38 0
-58 -41 0
57 35 38 41 58 0
-59 -54 0
-59 -58 0
54 58 59 0
-60 -54 0
-60 59 0
54 -59 60 0
-61 54 0
-61 -59 0
-54 59 61 0
-60 62 0
-61 62 0
-62 60 61 0
-63 -7 0
-63 23 0
7 -23 63 0
-64 7 0
-64 -23 0
-7 23 64 0
-63 65 0
-64 65 0
-65 63 64 0
-66 -6 0
-66 22 0
6 -22 66 0
-67 6 0
-67 -22 0
-6 22 67 0
-66 68 0
-67 68 0
-68 66 67 0
-69 -5 0
-69 21 0
5 -21 69 0
-70 5 0
-70 -21 0
-5 21 70 0
-69 71 0
-70 71 0
-71 69 70 0
-8 -72 0
8 72 0
-72 73 0
-24 73 0
-73 72 24 0
-7 -74 0
7 74 0
-74 75 0
-23 75 0
-75 74 23 0
-6 -76 0
6 76 0
-76 77 0
-22 77 0
-77 76 22 0
-5 -78 0
5 78 0
-78 79 0
-21 79 0
-79 78 21 0
-79 -80 0
79 80 0
-81 -71 0
-81 -77 0
71 77 81 0
-82 -68 0
-82 -71 0
-82 -75 0
68 71 75 82 0
-83 -65 0
-83 -68 0
-83 -71 0
-83 -73 0
65 68 71 73 83 0
-80 84 0
-81 84 0
-82 84 0
-83 84 0
-84 80 81 82 83 0
-85 -8 0
-85 24 0
8 -24 85 0
-86 8 0
-86 -24 0
-8 24 86 0
-85 87 0
-86 87 0
-87 85 86 0
-88 -87 0
-88 -65 0
-88 -68 0
-88 -71 0
87 65 68 71 88 0
-89 -84 0
-89 -88 0
84 88 89 0
-90 -84 0
-90 89 0
84 -89 90 0
-91 84 0
-91 -89 0
-84 89 91 0
-90 92 0
-91 92 0
-92 90 91 0
-93 -3 0
-93 19 0
3 -19 93 0
-94 3 0
-94 -19 0
-3 19 94 0
-93 95 0
-94 95 0
-95 93 94 0
-96 -2 0
-96 18 0
2 -18 96 0
-97 2 0
-97 -18 0
-2 18 97 0
-96 98 0
-97 98 0
-98 96 97 0
-99 -1 0
-99 17 0
1 -17 99 0
-100 1 0
-100 -17 0
-1 17 100 0
-99 101 0
-100 101 0
-101 99 100 0
-4 -102 0
4 102 0
-102 103 0
-20 103 0
-103 102 20 0
-3 -104 0
3 104 0
-104 105 0
-19 105 0
-105 104 19 0
-2 -106 0
2 106 0
-106 107 0
-18 107 0
-107 106 18 0
-1 -108 0
1 108 0
-108 109 0
-17 109 0
-109 108 17 0
-109 -110 0
109 110 0
-111 -101 0
-111 -107 0
101 107 111 0
-112 -98 0
-112 -101 0
-112 -105 0
98 101 105 112 0
-113 -95 0
-113 -98 0
-113 -101 0
-113 -103 0
95 98 101 103 113 0
-110 114 0
-111 114 0
-112 114 0
-113 114 0
-114 110 111 112 113 0
-115 -4 0
-115 20 0
4 -20 115 0
-116 4 0
-116 -20 0
-4 20 116 0
-115 117 0
-116 117 0
-117 115 116 0
-118 -117 0
-118 -95 0
-118 -98 0
-118 -101 0
117 95 98 101 118 0
-119 -114 0
-119 -118 0
114 118 119 0
-120 -114 0
-120 119 0
114 -119 120 0
-121 114 0
-121 -119 0
-114 119 121 0
-120 122 0
-121 122 0
-122 120 121 0
-123 -15 0
-123 31 0
15 -31 123 0
-124 15 0
-124 -31 0
-15 31 124 0
-123 125 0
-124 125 0
-125 123 124 0
-126 -14 0
-126 30 0
14 -30 126 0
-127 14 0
-127 -30 0
-14 30 127 0
-126 128 0
-127 128 0
-128 126 127 0
-129 -13 0
-129 29 0
13 -29 129 0
-130 13 0
-130 -29 0
-13 29 130 0
-129 131 0
-130 131 0
-131 129 130 0
-16 -132 0
16 132 0
-132 133 0
-32 133 0
-133 132 32 0
-15 -134 0
15 134 0
-134 135 0
-31 135 0
-135 134 31 0
-14 -136 0
14 136 0
-136 137 0
-30 137 0
-137 136 30 0
-13 -138 0
13 138 0
-138 139 0
-29 139 0
-139 138 29 0
-139 -140 0
139 140 0
-141 -131 0
-141 -137 0
131 137 141 0
-142 -128 0
-142 -131 0
-142 -135 0
128 131 135 142 0
-143 -125 0
-143 -128 0
-143 -131 0
-143 -133 0
125 128 131 133 143 0
-140 144 0
-141 144 0
-142 144 0
-143 144 0
-144 140 141 142 143 0
-145 -16 0
-145 32 0
16 -32 145 0
-146 16 0
-146 -32 0
-16 32 146 0
-145 147 0
-146 147 0
-147 145 146 0
-148 -147 0
-148 -125 0
-148 -128 0
-148 -131 0
147 125 128 131 148 0
-149 -144 0
-149 -148 0
144 148 149 0
-144 -150 0
144 150 0
-150 151 0
-149 151 0
-151 150 149 0
-54 -152 0
54 152 0
-152 153 0
-59 153 0
-153 152 59 0
-84 -154 0
84 154 0
-154 155 0
-89 155 0
-155 154 89 0
-114 -156 0
114 156 0
-156 157 0
-119 157 0
-157 156 119 0
-157 -158 0
157 158 0
-159 -122 0
-159 -155 0
122 155 159 0
-160 -92 0
-160 -122 0
-160 -153 0
92 122 153 160 0
-161 -62 0
-161 -92 0
-161 -122 0
-161 -151 0
62 92 122 151 161 0
-158 162 0
-159 162 0
-160 162 0
-161 162 0
-162 158 159 160 161 0
-163 -144 0
-163 149 0
144 -149 163 0
-164 144 0
-164 -149 0
-144 149 164 0
-163 165 0
-164 165 0
-165 163 164 0
-166 -165 0
-166 -62 0
-166 -92 0
-166 -122 0
165 62 92 122 166 0
-167 -162 0
-167 -166 0
162 166 167 0
-180 -15 0
-180 31 0
15 -31 180 0
-181 15 0
-181 -31 0
-15 31 181 0
-180 182 0
-181 182 0
-182 180 181 0
-183 -14 0
-183 30 0
14 -30 183 0
-184 14 0
-184 -30 0
-14 30 184 0
-183 185 0
-184 185 0
-185 183 184 0
-186 -13 0
-186 29 0
13 -29 186 0
-187 13 0
-187 -29 0
-13 29 187 0
-186 188 0
-187 188 0
-188 186 187 0
-16 -189 0
16 189 0
-190 32 0
-190 189 0
-32 -189 190 0
-15 -191 0
15 191 0
-191 192 0
-31 192 0
-192 191 31 0
-14 -193 0
14 193 0
-193 194 0
-30 194 0
-194 193 30 0
-13 -195 0
13 195 0
-195 196 0
-29 196 0
-196 195 29 0
-196 -197 0
196 197 0
-198 -188 0
-198 -194 0
188 194 198 0
-199 -185 0
-199 -188 0
-199 -192 0
185 188 192 199 0
-200 -182 0
-200 -185 0
-200 -188 0
-200 -190 0
182 185 188 190 200 0
-197 201 0
-198 201 0
-199 201 0
-200 201 0
-201 197 198 199 200 0
-202 -16 0
-202 32 0
16 -32 202 0
-203 16 0
-203 -32 0
-16 32 203 0
-202 204 0
-203 204 0
-204 202 203 0
-205 -204 0
-205 -182 0
-205 -185 0
-205 -188 0
204 182 185 188 205 0
-206 -201 0
-206 -205 0
201 205 206 0
-207 -201 0
-207 206 0
201 -206 207 0
-208 201 0
-208 -206 0
-201 206 208 0
-207 209 0
-208 209 0
-209 207 208 0
-210 -3 0
-210 19 0
3 -19 210 0
-211 3 0
-211 -19 0
-3 19 211 0
-210 212 0
-211 212 0
-212 210 211 0
-213 -2 0
-213 18 0
2 -18 213 0
-214 2 0
-214 -18 0
-2 18 214 0
-213 215 0
-214 215 0
-215 213 214 0
-216 -1 0
-216 17 0
1 -17 216 0
-217 1 0
-217 -17 0
-1 17 217 0
-216 218 0
-217 218 0
-218 216 217 0
-4 -219 0
4 219 0
-219 220 0
-20 220 0
-220 219 20 0
-3 -221 0
3 221 0
-221 222 0
-19 222 0
-222 221 19 0
-2 -223 0
2 223 0
-223 224 0
-18 224 0
-224 223 18 0
-1 -225 0
1 225 0
-225 226 0
-17 226 0
-226 225 17 0
-226 -227 0
226 227 0
-228 -218 0
-228 -224 0
218 224 228 0
-229 -215 0
-229 -218 0
-229 -222 0
215 218 222 229 0
-230 -212 0
-230 -215 0
-230 -218 0
-230 -220 0
212 215 218 220 230 0
-227 231 0
-228 231 0
-229 231 0
-230 231 0
-231 227 228 229 230 0
-232 -4 0
-232 20 0
4 -20 232 0
-233 4 0
-233 -20 0
-4 20 233 0
-232 234 0
-233 234 0
-234 232 233 0
-235 -234 0
-235 -212 0
-235 -215 0
-235 -218 0
234 212 215 218 235 0
-236 -231 0
-236 -235 0
231 235 236 0
-237 -231 0
-237 236 0
231 -236 237 0
-238 231 0
-238 -236 0
-231 236 238 0
-237 239 0
-238 239 0
-239 237 238 0
-240 -209 0
-240 -169 0
-240 -170 0
-240 -239 0
209 169 170 239 240 0
-241 -168 0
-241 -240 0
168 240 241 0
-242 -7 0
-242 23 0
7 -23 242 0
-243 7 0
-243 -23 0
-7 23 243 0
-242 244 0
-243 244 0
-244 242 243 0
-245 -6 0
-245 22 0
6 -22 245 0
-246 6 0
-246 -22 0
-6 22 246 0
-245 247 0
-246 247 0
-247 245 246 0
-248 -5 0
-248 21 0
5 -21 248 0
-249 5 0
-249 -21 0
-5 21 249 0
-248 250 0
-249 250 0
-250 248 249 0
-8 -251 0
8 251 0
-251 252 0
-24 252 0
-252 251 24 0
-7 -253 0
7 253 0
-253 254 0
-23 254 0
-254 253 23 0
-6 -255 0
6 255 0
-255 256 0
-22 256 0
-256 255 22 0
-5 -257 0
5 257 0
-257 258 0
-21 258 0
-258 257 21 0
-258 -259 0
258 259 0
-260 -250 0
-260 -256 0
250 256 260 0
-261 -247 0
-261 -250 0
-261 -254 0
247 250 254 261 0
-262 -244 0
-262 -247 0
-262 -250 0
-262 -252 0
244 247 250 252 262 0
-259 263 0
-260 263 0
-261 263 0
-262 263 0
-263 259 260 261 262 0
-264 -8 0
-264 24 0
8 -24 264 0
-265 8 0
-265 -24 0
-8 24 265 0
-264 266 0
-265 266 0
-266 264 265 0
-267 -266 0
-267 -244 0
-267 -247 0
-267 -250 0
266 244 247 250 267 0
-268 -263 0
-268 -267 0
263 267 268 0
-269 -11 0
-269 27 0
11 -27 269 0
-270 11 0
-270 -27 0
-11 27 270 0
-269 271 0
-270 271 0
-271 269 270 0
-272 -10 0
-272 26 0
10 -26 272 0
-273 10 0
-273 -26 0
-10 26 273 0
-272 274 0
-273 274 0
-274 272 273 0
-275 -9 0
-275 25 0
9 -25 275 0
-276 9 0
-276 -25 0
-9 25 276 0
-275 277 0
-276 277 0
-277 275 276 0
-12 -278 0
12 278 0
-278 279 0
-28 279 0
-279 278 28 0
-11 -280 0
11 280 0
-280 281 0
-27 281 0
-281 280 27 0
-10 -282 0
10 282 0
-282 283 0
-26 283 0
-283 282 26 0
-9 -284 0
9 284 0
-284 285 0
-25 285 0
-285 284 25 0
-285 -286 0
285 286 0
-287 -277 0
-287 -283 0
277 283 287 0
-288 -274 0
-288 -277 0
-288 -281 0
274 277 281 288 0
-289 -271 0
-289 -274 0
-289 -277 0
-289 -279 0
271 274 277 279 289 0
-286 290 0
-287 290 0
-288 290 0
-289 290 0
-290 286 287 288 289 0
-291 -12 0
-291 28 0
12 -28 291 0
-292 12 0
-292 -28 0
-12 28 292 0
-291 293 0
-292 293 0
-293 291 292 0
-294 -293 0
-294 -271 0
-294 -274 0
-294 -277 0
293 271 274 277 294 0
-295 -290 0
-295 -294 0
290 294 295 0
-201 -296 0
201 296 0
-296 297 0
-206 297 0
-297 296 206 0
-290 -298 0
290 298 0
-298 299 0
-295 299 0
-299 298 295 0
-263 -300 0
263 300 0
-300 301 0
-268 301 0
-301 300 268 0
-231 -302 0
231 302 0
-302 303 0
-236 303 0
-303 302 236 0
-304 -167 241 0
-304 167 -241 0
304 -167 -241 0
304 167 241 0
-305 -166 240 0
-305 166 -240 0
305 -166 -240 0
305 166 240 0
-306 -162 168 0
-306 162 -168 0
306 -162 -168 0
306 162 168 0
-304 -305 -306 307 0
-307 304 0
-307 305 0
-307 306 0
-263 -171 -308 0
-263 171 308 0
263 -171 308 0
263 171 -308 0
-268 -172 -309 0
-268 172 309 0
268 -172 309 0
268 172 -309 0
-290 -173 -310 0
-290 173 310 0
290 -173 310 0
290 173 -310 0
-295 -174 -311 0
-295 174 311 0
295 -174 311 0
295 174 -311 0
-239 -175 -312 0
-239 175 312 0
239 -175 312 0
239 175 -312 0
-297 -176 -313 0
-297 176 313 0
297 -176 313 0
297 176 -313 0
-299 -177 -314 0
-299 177 314 0
299 -177 314 0
299 177 -314 0
-301 -178 -315 0
-301 178 315 0
301 -178 315 0
301 178 -315 0
-303 -179 -316 0
-303 179 316 0
303 -179 316 0
303 179 -316 0
308 309 310 311 312 313 314 315 316 307 0
-11 -1164 0
27 -1164 0
11 -27 1164 0
11 -1165 0
-27 -1165 0
-11 27 1165 0
-33 -1166 0
-34 -1166 0
33 34 1166 0
-10 -1167 0
26 -1167 0
10 -26 1167 0
10 -1168 0
-26 -1168 0
-10 26 1168 0
-36 -1169 0
-37 -1169 0
36 37 1169 0
-9 -1170 0
25 -1170 0
9 -25 1170 0
9 -1171 0
-25 -1171 0
-9 25 1171 0
-39 -1172 0
-40 -1172 0
39 40 1172 0
-28 -1173 0
-42 -1173 0
28 42 1173 0
-27 -1174 0
-44 -1174 0
27 44 1174 0
-26 -1175 0
-46 -1175 0
26 46 1175 0
-25 -1176 0
-48 -1176 0
25 48 1176 0
-41 -1177 0
-47 -1177 0
41 47 1177 0
-38 -1178 0
-41 -1178 0
38 41 1178 0
-45 -1179 0
1178 -1179 0
45 -1178 1179 0
-35 -1180 0
1178 -1180 0
35 -1178 1180 0
-43 -1181 0
1180 -1181 0
43 -1180 1181 0
-50 -1182 0
-51 -1182 0
50 51 1182 0
-52 -1183 0
-53 -1183 0
52 53 1183 0
1182 -1184 0
1183 -1184 0
-1182 -1183 1184 0
-12 -1185 0
28 -1185 0
12 -28 1185 0
12 -1186 0
-28 -1186 0
-12 28 1186 0
-55 -1187 0
-56 -1187 0
55 56 1187 0
-57 -1188 0
1180 -1188 0
57 -1180 1188 0
-54 -1189 0
-58 -1189 0
54 58 1189 0
-54 -1190 0
59 -1190 0
54 -59 1190 0
54 -1191 0
-59 -1191 0
-54 59 1191 0
-60 -1192 0
-61 -1192 0
60 61 1192 0
-7 -1193 0
23 -1193 0
7 -23 1193 0
7 -1194 0
-23 -1194 0
-7 23 1194 0
-63 -1195 0
-64 -1195 0
63 64 1195 0
-6 -1196 0
22 -1196 0
6 -22 1196 0
6 -1197 0
-22 -1197 0
-6 22 1197 0
-66 -1198 0
-67 -1198 0
66 67 1198 0
-5 -1199 0
21 -1199 0
5 -21 1199 0
5 -1200 0
-21 -1200 0
-5 21 1200 0
-69 -1201 0
-70 -1201 0
69 70 1201 0
-24 -1202 0
-72 -1202 0
24 72 1202 0
-23 -1203 0
-74 -1203 0
23 74 1203 0
-22 -1204 0
-76 -1204 0
22 76 1204 0
-21 -1205 0
-78 -1205 0
21 78 1205 0
-71 -1206 0
-77 -1206 0
71 77 1206 0
-68 -1207 0
-71 -1207 0
68 71 1207 0
-75 -1208 0
1207 -1208 0
75 -1207 1208 0
-65 -1209 0
1207 -1209 0
65 -1207 1209 0
-73 -1210 0
1209 -1210 0
73 -1209 1210 0
-80 -1211 0
-81 -1211 0
80 81 1211 0
-82 -1212 0
-83 -1212 0
82 83 1212 0
1211 -1213 0
1212 -1213 0
-1211 -1212 1213 0
-8 -1214 0
24 -1214 0
8 -24 1214 0
8 -1215 0
-24 -1215 0
-8 24 1215 0
-85 -1216 0
-86 -1216 0
85 86 1216 0
-87 -1217 0
1209 -1217 0
87 -1209 1217 0
-84 -1218 0
-88 -1218 0
84 88 1218 0
-84 -1219 0
89 -1219 0
84 -89 1219 0
84 -1220 0
-89 -1220 0
-84 89 1220 0
-90 -1221 0
-91 -1221 0
90 91 1221 0
-3 -1222 0
19 -1222 0
3 -19 1222 0
3 -1223 0
-19 -1223 0
-3 19 1223 0
-93 -1224 0
-94 -1224 0
93 94 1224 0
-2 -1225 0
18 -1225 0
2 -18 1225 0
2 -1226 0
-18 -1226 0
-2 18 1226 0
-96 -1227 0
-97 -1227 0
96 97 1227 0
-1 -1228 0
17 -1228 0
1 -17 1228 0
1 -1229 0
-17 -1229 0
-1 17 1229 0
-99 -1230 0
-100 -1230 0
99 100 1230 0
-20 -1231 0
-102 -1231 0
20 102 1231 0
-19 -1232 0
-104 -1232 0
19 104 1232 0
-18 -1233 0
-106 -1233 0
18 106 1233 0
-17 -1234 0
-108 -1234 0
17 108 1234 0
-101 -1235 0
-107 -1235 0
101 107 1235 0
-98 -1236 0
-101 -1236 0
98 101 1236 0
-105 -1237 0
1236 -1237 0
105 -1236 1237 0
-95 -1238 0
1236 -1238 0
95 -1236 1238 0
-103 -1239 0
1238 -1239 0
103 -1238 1239 0
-110 -1240 0
-111 -1240 0
110 111 1240 0
-112 -1241 0
-113 -1241 0
112 113 1241 0
1240 -1242 0
1241 -1242 0
-1240 -1241 1242 0
-4 -1243 0
20 -1243 0
4 -20 1243 0
4 -1244 0
-20 -1244 0
-4 20 1244 0
-115 -1245 0
-116 -1245 0
115 116 1245 0
-117 -1246 0
1238 -1246 0
117 -1238 1246 0
-114 -1247 0
-118 -1247 0
114 118 1247 0
-114 -1248 0
119 -1248 0
114 -119 1248 0
114 -1249 0
-119 -1249 0
-114 119 1249 0
-120 -1250 0
-121 -1250 0
120 121 1250 0
-15 -1251 0
31 -1251 0
15 -31 1251 0
15 -1252 0
-31 -1252 0
-15 31 1252 0
-123 -1253 0
-124 -1253 0
123 124 1253 0
-14 -1254 0
30 -1254 0
14 -30 1254 0
14 -1255 0
-30 -1255 0
-14 30 1255 0
-126 -1256 0
-127 -1256 0
126 127 1256 0
-13 -1257 0
29 -1257 0
13 -29 1257 0
13 -1258 0
-29 -1258 0
-13 29 1258 0
-129 -1259 0
-130 -1259 0
129 130 1259 0
-32 -1260 0
-132 -1260 0
32 132 1260 0
-31 -1261 0
-134 -1261 0
31 134 1261 0
-30 -1262 0
-136 -1262 0
30 136 1262 0
-29 -1263 0
-138 -1263 0
29 138 1263 0
-131 -1264 0
-137 -1264 0
131 137 1264 0
-128 -1265 0
-131 -1265 0
128 131 1265 0
-135 -1266 0
1265 -1266 0
135 -1265 1266 0
-125 -1267 0
1265 -1267 0
125 -1265 1267 0
-133 -1268 0
1267 -1268 0
133 -1267 1268 0
-140 -1269 0
-141 -1269 0
140 141 1269 0
-142 -1270 0
-143 -1270 0
142 143 1270 0
1269 -1271 0
1270 -1271 0
-1269 -1270 1271 0
-16 -1272 0
32 -1272 0
16 -32 1272 0
16 -1273 0
-32 -1273 0
-16 32 1273 0
-145 -1274 0
-146 -1274 0
145 146 1274 0
-147 -1275 0
1267 -1275 0
147 -1267 1275 0
-144 -1276 0
-148 -1276 0
144 148 1276 0
-149 -1277 0
-150 -1277 0
149 150 1277 0
-59 -1278 0
-152 -1278 0
59 152 1278 0
-89 -1279 0
-154 -1279 0
89 154 1279 0
-119 -1280 0
-156 -1280 0
119 156 1280 0
-122 -1281 0
-155 -1281 0
122 155 1281 0
-92 -1282 0
-122 -1282 0
92 122 1282 0
-153 -1283 0
1282 -1283 0
153 -1282 1283 0
-62 -1284 0
1282 -1284 0
62 -1282 1284 0
-151 -1285 0
1284 -1285 0
151 -1284 1285 0
-158 -1286 0
-159 -1286 0
158 159 1286 0
-160 -1287 0
-161 -1287 0
160 161 1287 0
1286 -1288 0
1287 -1288 0
-1286 -1287 1288 0
-144 -1289 0
149 -1289 0
144 -149 1289 0
144 -1290 0
-149 -1290 0
-144 149 1290 0
-163 -1291 0
-164 -1291 0
163 164 1291 0
-165 -1292 0
1284 -1292 0
165 -1284 1292 0
-162 -1293 0
-166 -1293 0
162 166 1293 0
-180 -1294 0
-181 -1294 0
180 181 1294 0
-183 -1295 0
-184 -1295 0
183 184 1295 0
-186 -1296 0
-187 -1296 0
186 187 1296 0
32 -1297 0
189 -1297 0
-32 -189 1297 0
-31 -1298 0
-191 -1298 0
31 191 1298 0
-30 -1299 0
-193 -1299 0
30 193 1299 0
-29 -1300 0
-195 -1300 0
29 195 1300 0
-188 -1301 0
-194 -1301 0
188 194 1301 0
-185 -1302 0
-188 -1302 0
185 188 1302 0
-192 -1303 0
1302 -1303 0
192 -1302 1303 0
-182 -1304 0
1302 -1304 0
182 -1302 1304 0
-190 -1305 0
1304 -1305 0
190 -1304 1305 0
-197 -1306 0
-198 -1306 0
197 198 1306 0
-199 -1307 0
-200 -1307 0
199 200 1307 0
1306 -1308 0
1307 -1308 0
-1306 -1307 1308 0
-202 -1309 0
-203 -1309 0
202 203 1309 0
-204 -1310 0
1304 -1310 0
204 -1304 1310 0
-201 -1311 0
-205 -1311 0
201 205 1311 0
-201 -1312 0
206 -1312 0
201 -206 1312 0
201 -1313 0
-206 -1313 0
-201 206 1313 0
-207 -1314 0
-208 -1314 0
207 208 1314 0
-210 -1315 0
-211 -1315 0
210 211 1315 0
-213 -1316 0
-214 -1316 0
213 214 1316 0
-216 -1317 0
-217 -1317 0
216 217 1317 0
-20 -1318 0
-219 -1318 0
20 219 1318 0
-19 -1319 0
-221 -1319 0
19 221 1319 0
-18 -1320 0
-223 -1320 0
18 223 1320 0
-17 -1321 0
-225 -1321 0
17 225 1321 0
-218 -1322 0
-224 -1322 0
218 224 1322 0
-215 -1323 0
-218 -1323 0
215 218 1323 0
-222 -1324 0
1323 -1324 0
222 -1323 1324 0
-212 -1325 0
1323 -1325 0
212 -1323 1325 0
-220 -1326 0
1325 -1326 0
220 -1325 1326 0
-227 -1327 0
-228 -1327 0
227 228 1327 0
-229 -1328 0
-230 -1328 0
229 230 1328 0
1327 -1329 0
1328 -1329 0
-1327 -1328 1329 0
-232 -1330 0
-233 -1330 0
232 233 1330 0
-234 -1331 0
1325 -1331 0
234 -1325 1331 0
-231 -1332 0
-235 -1332 0
231 235 1332 0
-231 -1333 0
236 -1333 0
231 -236 1333 0
231 -1334 0
-236 -1334 0
-231 236 1334 0
-237 -1335 0
-238 -1335 0
237 238 1335 0
-242 -1336 0
-243 -1336 0
242 243 1336 0
-245 -1337 0
-246 -1337 0
245 246 1337 0
-248 -1338 0
-249 -1338 0
248 249 1338 0
-24 -1339 0
-251 -1339 0
24 251 1339 0
-23 -1340 0
-253 -1340 0
23 253 1340 0
-22 -1341 0
-255 -1341 0
22 255 1341 0
-21 -1342 0
-257 -1342 0
21 257 1342 0
-250 -1343 0
-256 -1343 0
250 256 1343 0
-247 -1344 0
-250 -1344 0
247 250 1344 0
-254 -1345 0
1344 -1345 0
254 -1344 1345 0
-244 -1346 0
1344 -1346 0
244 -1344 1346 0
-252 -1347 0
1346 -1347 0
252 -1346 1347 0
-259 -1348 0
-260 -1348 0
259 260 1348 0
-261 -1349 0
-262 -1349 0
261 262 1349 0
1348 -1350 0
1349 -1350 0
-1348 -1349 1350 0
-264 -1351 0
-265 -1351 0
264 265 1351 0
-266 -1352 0
1346 -1352 0
266 -1346 1352 0
-263 -1353 0
-267 -1353 0
263 267 1353 0
-269 -1354 0
-270 -1354 0
269 270 1354 0
-272 -1355 0
-273 -1355 0
272 273 1355 0
-275 -1356 0
-276 -1356 0
275 276 1356 0
-28 -1357 0
-278 -1357 0
28 278 1357 0
-27 -1358 0
-280 -1358 0
27 280 1358 0
-26 -1359 0
-282 -1359 0
26 282 1359 0
-25 -1360 0
-284 -1360 0
25 284 1360 0
-277 -1361 0
-283 -1361 0
277 283 1361 0
-274 -1362 0
-277 -1362 0
274 277 1362 0
-281 -1363 0
1362 -1363 0
281 -1362 1363 0
-271 -1364 0
1362 -1364 0
271 -1362 1364 0
-279 -1365 0
1364 -1365 0
279 -1364 1365 0
-286 -1366 0
-287 -1366 0
286 287 1366 0
-288 -1367 0
-289 -1367 0
288 289 1367 0
1366 -1368 0
1367 -1368 0
-1366 -1367 1368 0
-291 -1369 0
-292 -1369 0
291 292 1369 0
-293 -1370 0
1364 -1370 0
293 -1364 1370 0
-290 -1371 0
-294 -1371 0
290 294 1371 0
-206 -1372 0
-296 -1372 0
206 296 1372 0
-295 -1373 0
-298 -1373 0
295 298 1373 0
-268 -1374 0
-300 -1374 0
268 300 1374 0
-236 -1375 0
-302 -1375 0
236 302 1375 0
167 -1376 0
-241 -1376 0
-167 241 1376 0
-167 -1377 0
241 -1377 0
167 -241 1377 0
-1376 -1378 0
-1377 -1378 0
1376 1377 1378 0
166 -1379 0
-240 -1379 0
-166 240 1379 0
-166 -1380 0
240 -1380 0
166 -240 1380 0
-1379 -1381 0
-1380 -1381 0
1379 1380 1381 0
162 -1382 0
241 -1382 0
-162 -241 1382 0
-162 -1383 0
-240 -1383 0
162 240 1383 0
-241 -1384 0
1383 -1384 0
241 -1383 1384 0
-1382 -1385 0
-1384 -1385 0
1382 1384 1385 0
304 -1386 0
305 -1386 0
-304 -305 1386 0
306 -1387 0
1386 -1387 0
-306 -1386 1387 0
-171 -1388 0
-263 -1388 0
171 263 1388 0
171 -1389 0
263 -1389 0
-171 -263 1389 0
-1388 -1390 0
-1389 -1390 0
1388 1389 1390 0
-172 -1391 0
-268 -1391 0
172 268 1391 0
172 -1392 0
268 -1392 0
-172 -268 1392 0
-1391 -1393 0
-1392 -1393 0
1391 1392 1393 0
-173 -1394 0
-290 -1394 0
173 290 1394 0
173 -1395 0
290 -1395 0
-173 -290 1395 0
-1394 -1396 0
-1395 -1396 0
1394 1395 1396 0
-174 -1397 0
-295 -1397 0
174 295 1397 0
174 -1398 0
295 -1398 0
-174 -295 1398 0
-1397 -1399 0
-1398 -1399 0
1397 1398 1399 0
237 -1400 0
-1333 -1400 0
-237 1333 1400 0
231 -1401 0
1335 -1401 0
-231 -1335 1401 0
231 -1402 0
239 -1402 0
-231 -239 1402 0
238 -1403 0
-1402 -1403 0
-238 1402 1403 0
-1401 -1404 0
-1403 -1404 0
1401 1403 1404 0
-1400 -1405 0
1404 -1405 0
1400 -1404 1405 0
-175 -1406 0
-1335 -1406 0
175 1335 1406 0
239 -1407 0
-1406 -1407 0
-239 1406 1407 0
175 -1408 0
-236 -1408 0
-175 236 1408 0
-239 -1409 0
-1408 -1409 0
239 1408 1409 0
236 -1410 0
-237 -1410 0
-236 237 1410 0
-1409 -1411 0
-1410 -1411 0
1409 1410 1411 0
-1407 -1412 0
1411 -1412 0
1407 -1411 1412 0
1405 -1413 0
1412 -1413 0
-1405 -1412 1413 0
-176 -1414 0
-297 -1414 0
176 297 1414 0
176 -1415 0
297 -1415 0
-176 -297 1415 0
-1414 -1416 0
-1415 -1416 0
1414 1415 1416 0
-177 -1417 0
-299 -1417 0
177 299 1417 0
177 -1418 0
299 -1418 0
-177 -299 1418 0
-1417 -1419 0
-1418 -1419 0
1417 1418 1419 0
-178 -1420 0
-301 -1420 0
178 301 1420 0
178 -1421 0
301 -1421 0
-178 -301 1421 0
-1420 -1422 0
-1421 -1422 0
1420 1421 1422 0
-179 -1423 0
-303 -1423 0
179 303 1423 0
179 -1424 0
303 -1424 0
-179 -303 1424 0
-1423 -1425 0
-1424 -1425 0
1423 1424 1425 0
